param n := 120;
param c := 10000
param : V : p w :=
   0	 442	 432
   1	 275	 265
   2	 313	 303
   3	 375	 365
   4	 292	 282
   5	 363	 353
   6	 458	 448
   7	 270	 260
   8	 302	 292
   9	 506	 496
  10	 260	 250
  11	 264	 254
  12	 373	 363
  13	 275	 265
  14	 382	 372
  15	 382	 372
  16	 308	 298
  17	 340	 330
  18	 501	 491
  19	 263	 253
  20	 266	 256
  21	 439	 429
  22	 270	 260
  23	 321	 311
  24	 402	 392
  25	 278	 268
  26	 350	 340
  27	 443	 433
  28	 261	 251
  29	 326	 316
  30	 416	 406
  31	 269	 259
  32	 345	 335
  33	 375	 365
  34	 262	 252
  35	 393	 383
  36	 403	 393
  37	 281	 271
  38	 346	 336
  39	 390	 380
  40	 313	 303
  41	 327	 317
  42	 391	 381
  43	 305	 295
  44	 334	 324
  45	 434	 424
  46	 278	 268
  47	 318	 308
  48	 508	 498
  49	 260	 250
  50	 262	 252
  51	 424	 414
  52	 265	 255
  53	 341	 331
  54	 431	 421
  55	 278	 268
  56	 321	 311
  57	 501	 491
  58	 260	 250
  59	 269	 259
  60	 503	 493
  61	 260	 250
  62	 267	 257
  63	 378	 368
  64	 275	 265
  65	 377	 367
  66	 418	 408
  67	 299	 289
  68	 313	 303
  69	 454	 444
  70	 272	 262
  71	 304	 294
  72	 413	 403
  73	 269	 259
  74	 348	 338
  75	 495	 485
  76	 263	 253
  77	 272	 262
  78	 475	 465
  79	 270	 260
  80	 285	 275
  81	 431	 421
  82	 264	 254
  83	 335	 325
  84	 361	 351
  85	 306	 296
  86	 363	 353
  87	 406	 396
  88	 286	 276
  89	 338	 328
  90	 399	 389
  91	 305	 295
  92	 326	 316
  93	 493	 483
  94	 261	 251
  95	 276	 266
  96	 408	 398
  97	 299	 289
  98	 323	 313
  99	 373	 363
 100	 318	 308
 101	 339	 329
 102	 409	 399
 103	 289	 279
 104	 332	 322
 105	 399	 389
 106	 293	 283
 107	 338	 328
 108	 412	 402
 109	 261	 251
 110	 357	 347
 111	 367	 357
 112	 290	 280
 113	 373	 363
 114	 437	 427
 115	 287	 277
 116	 306	 296
 117	 385	 375
 118	 269	 259
 119	 376	 366
;

set E :=
   0	   3
   0	   4
   0	  14
   0	  23
   0	  26
   0	  27
   0	  34
   0	  35
   0	  38
   0	  41
   0	  42
   0	  43
   0	  46
   0	  50
   0	  53
   0	  56
   0	  57
   0	  69
   0	  76
   0	  81
   0	  84
   0	  86
   0	  87
   0	  92
   0	  93
   0	  94
   0	 105
   0	 106
   0	 109
   0	 110
   0	 113
   0	 118
   1	   3
   1	   5
   1	   9
   1	  10
   1	  11
   1	  12
   1	  22
   1	  23
   1	  34
   1	  35
   1	  36
   1	  38
   1	  39
   1	  43
   1	  44
   1	  45
   1	  46
   1	  49
   1	  57
   1	  59
   1	  60
   1	  65
   1	  70
   1	  75
   1	  76
   1	  77
   1	  80
   1	  85
   1	  91
   1	  92
   1	 102
   1	 107
   1	 115
   1	 116
   2	   3
   2	   5
   2	   9
   2	  13
   2	  14
   2	  15
   2	  17
   2	  18
   2	  19
   2	  21
   2	  29
   2	  31
   2	  32
   2	  36
   2	  38
   2	  39
   2	  40
   2	  42
   2	  44
   2	  51
   2	  52
   2	  66
   2	  78
   2	  85
   2	  90
   2	  91
   2	  93
   2	  94
   2	  97
   2	 101
   2	 105
   2	 109
   2	 111
   2	 116
   2	 118
   3	   4
   3	   5
   3	  11
   3	  15
   3	  16
   3	  20
   3	  21
   3	  23
   3	  35
   3	  43
   3	  48
   3	  53
   3	  58
   3	  62
   3	  64
   3	  69
   3	  70
   3	  71
   3	  72
   3	  75
   3	  76
   3	  79
   3	  81
   3	  86
   3	  87
   3	  88
   3	  90
   3	  92
   3	  93
   3	  94
   3	  98
   3	 100
   3	 101
   3	 102
   3	 110
   3	 114
   3	 117
   3	 119
   4	   5
   4	   6
   4	  11
   4	  12
   4	  27
   4	  29
   4	  34
   4	  42
   4	  43
   4	  44
   4	  45
   4	  53
   4	  58
   4	  60
   4	  62
   4	  66
   4	  70
   4	  71
   4	  84
   4	  90
   4	  91
   4	  95
   4	  99
   4	 101
   4	 104
   4	 115
   4	 116
   4	 117
   5	   7
   5	   8
   5	   9
   5	  11
   5	  16
   5	  17
   5	  19
   5	  20
   5	  21
   5	  22
   5	  26
   5	  30
   5	  31
   5	  32
   5	  37
   5	  41
   5	  47
   5	  54
   5	  56
   5	  58
   5	  60
   5	  63
   5	  65
   5	  69
   5	  74
   5	  75
   5	  76
   5	  80
   5	  82
   5	  84
   5	  85
   5	  86
   5	  87
   5	  91
   5	  92
   5	  94
   5	  95
   5	  97
   5	  98
   5	 102
   5	 105
   5	 111
   5	 113
   5	 119
   6	  10
   6	  11
   6	  16
   6	  22
   6	  24
   6	  25
   6	  26
   6	  39
   6	  40
   6	  45
   6	  51
   6	  58
   6	  59
   6	  67
   6	  68
   6	  73
   6	  75
   6	  78
   6	  82
   6	  85
   6	  86
   6	  88
   6	  89
   6	  91
   6	  92
   6	  94
   6	  96
   6	 103
   6	 105
   6	 107
   6	 109
   6	 110
   6	 113
   6	 116
   7	  10
   7	  18
   7	  19
   7	  23
   7	  25
   7	  26
   7	  29
   7	  31
   7	  38
   7	  41
   7	  43
   7	  45
   7	  46
   7	  48
   7	  53
   7	  54
   7	  55
   7	  57
   7	  61
   7	  62
   7	  63
   7	  68
   7	  70
   7	  76
   7	  78
   7	  80
   7	  81
   7	  85
   7	  87
   7	  90
   7	  93
   7	  96
   7	  97
   7	 106
   7	 107
   7	 113
   7	 117
   8	  11
   8	  12
   8	  13
   8	  15
   8	  22
   8	  27
   8	  28
   8	  29
   8	  32
   8	  33
   8	  36
   8	  37
   8	  38
   8	  39
   8	  41
   8	  42
   8	  49
   8	  56
   8	  58
   8	  61
   8	  71
   8	  84
   8	  95
   8	 102
   8	 105
   8	 109
   8	 110
   8	 112
   9	  10
   9	  23
   9	  26
   9	  28
   9	  29
   9	  33
   9	  34
   9	  39
   9	  42
   9	  44
   9	  49
   9	  51
   9	  53
   9	  54
   9	  58
   9	  59
   9	  71
   9	  79
   9	  80
   9	  82
   9	  84
   9	  85
   9	  86
   9	  87
   9	  88
   9	  89
   9	  92
   9	  96
   9	  97
   9	  99
   9	 101
   9	 102
   9	 104
   9	 107
   9	 114
   9	 119
  10	  12
  10	  13
  10	  19
  10	  22
  10	  24
  10	  25
  10	  27
  10	  33
  10	  34
  10	  45
  10	  47
  10	  52
  10	  53
  10	  54
  10	  56
  10	  59
  10	  61
  10	  63
  10	  65
  10	  66
  10	  70
  10	  75
  10	  79
  10	  83
  10	  87
  10	  89
  10	  93
  10	  94
  10	  96
  10	  99
  10	 100
  10	 108
  10	 109
  10	 110
  10	 114
  10	 117
  10	 119
  11	  17
  11	  24
  11	  31
  11	  34
  11	  37
  11	  44
  11	  47
  11	  56
  11	  58
  11	  61
  11	  69
  11	  76
  11	  77
  11	  79
  11	  85
  11	  89
  11	  90
  11	  92
  11	  93
  11	  95
  11	  96
  11	 101
  11	 103
  11	 105
  11	 106
  11	 108
  11	 109
  11	 112
  11	 115
  12	  15
  12	  23
  12	  24
  12	  26
  12	  27
  12	  29
  12	  30
  12	  32
  12	  35
  12	  37
  12	  45
  12	  47
  12	  48
  12	  51
  12	  55
  12	  59
  12	  60
  12	  64
  12	  65
  12	  66
  12	  68
  12	  73
  12	  78
  12	  79
  12	  83
  12	  84
  12	  88
  12	  90
  12	  95
  12	  96
  12	  97
  12	  98
  12	 101
  12	 103
  12	 110
  12	 112
  12	 114
  12	 116
  13	  16
  13	  18
  13	  23
  13	  28
  13	  31
  13	  33
  13	  35
  13	  37
  13	  39
  13	  42
  13	  44
  13	  45
  13	  54
  13	  56
  13	  57
  13	  62
  13	  63
  13	  67
  13	  68
  13	  73
  13	  74
  13	  76
  13	  81
  13	  84
  13	  85
  13	  93
  13	  98
  13	 110
  13	 112
  14	  16
  14	  18
  14	  20
  14	  23
  14	  24
  14	  26
  14	  28
  14	  32
  14	  45
  14	  46
  14	  50
  14	  53
  14	  55
  14	  57
  14	  59
  14	  60
  14	  63
  14	  64
  14	  72
  14	  74
  14	  78
  14	  79
  14	  84
  14	  92
  14	  93
  14	  97
  14	 100
  14	 103
  14	 107
  14	 108
  14	 109
  14	 111
  14	 112
  14	 113
  14	 118
  14	 119
  15	  25
  15	  27
  15	  29
  15	  31
  15	  34
  15	  38
  15	  39
  15	  40
  15	  46
  15	  47
  15	  48
  15	  49
  15	  50
  15	  58
  15	  62
  15	  64
  15	  67
  15	  68
  15	  69
  15	  71
  15	  77
  15	  78
  15	  80
  15	  84
  15	  89
  15	  92
  15	  94
  15	  95
  15	  98
  15	 103
  15	 105
  15	 108
  15	 109
  15	 113
  15	 114
  15	 115
  15	 119
  16	  18
  16	  19
  16	  20
  16	  21
  16	  25
  16	  30
  16	  31
  16	  35
  16	  37
  16	  47
  16	  51
  16	  53
  16	  56
  16	  57
  16	  62
  16	  63
  16	  68
  16	  70
  16	  77
  16	  79
  16	  87
  16	  88
  16	  90
  16	  93
  16	  94
  16	  98
  16	  99
  16	 105
  16	 109
  16	 116
  16	 117
  16	 119
  17	  20
  17	  21
  17	  23
  17	  30
  17	  31
  17	  32
  17	  36
  17	  37
  17	  38
  17	  39
  17	  40
  17	  41
  17	  48
  17	  50
  17	  51
  17	  63
  17	  64
  17	  67
  17	  69
  17	  73
  17	  75
  17	  76
  17	  78
  17	  79
  17	  83
  17	  84
  17	  91
  17	  93
  17	  94
  17	  95
  17	  97
  17	 103
  17	 104
  17	 106
  17	 107
  17	 110
  17	 112
  18	  21
  18	  23
  18	  31
  18	  33
  18	  34
  18	  38
  18	  42
  18	  43
  18	  44
  18	  47
  18	  48
  18	  51
  18	  57
  18	  58
  18	  59
  18	  62
  18	  64
  18	  65
  18	  67
  18	  69
  18	  75
  18	  76
  18	  89
  18	  90
  18	  91
  18	  93
  18	  95
  18	  99
  18	 101
  18	 106
  18	 109
  18	 110
  18	 113
  18	 114
  18	 116
  18	 119
  19	  25
  19	  26
  19	  28
  19	  29
  19	  30
  19	  33
  19	  34
  19	  38
  19	  42
  19	  43
  19	  46
  19	  47
  19	  50
  19	  53
  19	  60
  19	  62
  19	  63
  19	  68
  19	  71
  19	  72
  19	  73
  19	  75
  19	  78
  19	  83
  19	  87
  19	  88
  19	  95
  19	  96
  19	  99
  19	 104
  19	 108
  19	 109
  19	 110
  19	 111
  19	 112
  19	 116
  19	 117
  20	  21
  20	  26
  20	  27
  20	  29
  20	  36
  20	  44
  20	  54
  20	  57
  20	  59
  20	  60
  20	  61
  20	  71
  20	  72
  20	  74
  20	  75
  20	  76
  20	  80
  20	  81
  20	  88
  20	  97
  20	  99
  20	 101
  20	 102
  20	 105
  20	 109
  20	 117
  20	 119
  21	  22
  21	  23
  21	  24
  21	  26
  21	  32
  21	  34
  21	  35
  21	  39
  21	  40
  21	  41
  21	  46
  21	  53
  21	  57
  21	  59
  21	  67
  21	  69
  21	  72
  21	  74
  21	  77
  21	  78
  21	  79
  21	  80
  21	  81
  21	  83
  21	  85
  21	  86
  21	  87
  21	  89
  21	  90
  21	  91
  21	  96
  21	  99
  21	 101
  21	 102
  21	 103
  22	  33
  22	  34
  22	  37
  22	  43
  22	  45
  22	  46
  22	  49
  22	  56
  22	  59
  22	  61
  22	  63
  22	  64
  22	  66
  22	  70
  22	  71
  22	  72
  22	  73
  22	  76
  22	  78
  22	  80
  22	  81
  22	  82
  22	  87
  22	  98
  22	 101
  22	 105
  22	 106
  22	 110
  23	  31
  23	  33
  23	  34
  23	  35
  23	  37
  23	  40
  23	  48
  23	  51
  23	  64
  23	  67
  23	  68
  23	  70
  23	  72
  23	  76
  23	  77
  23	  79
  23	  95
  23	  98
  23	 104
  23	 108
  23	 112
  23	 114
  23	 119
  24	  26
  24	  29
  24	  41
  24	  42
  24	  45
  24	  48
  24	  51
  24	  55
  24	  60
  24	  61
  24	  62
  24	  65
  24	  66
  24	  67
  24	  70
  24	  75
  24	  80
  24	  83
  24	  87
  24	  91
  24	  93
  24	  96
  24	 103
  24	 108
  24	 110
  24	 115
  24	 116
  24	 117
  24	 119
  25	  26
  25	  27
  25	  28
  25	  32
  25	  37
  25	  39
  25	  42
  25	  45
  25	  47
  25	  49
  25	  51
  25	  56
  25	  57
  25	  58
  25	  61
  25	  64
  25	  68
  25	  69
  25	  70
  25	  71
  25	  74
  25	  75
  25	  79
  25	  81
  25	  88
  25	  96
  25	  97
  25	  98
  25	 100
  25	 102
  25	 103
  25	 107
  25	 111
  25	 115
  26	  28
  26	  32
  26	  35
  26	  36
  26	  37
  26	  41
  26	  44
  26	  51
  26	  52
  26	  56
  26	  58
  26	  64
  26	  65
  26	  66
  26	  67
  26	  72
  26	  78
  26	  79
  26	  80
  26	  88
  26	  89
  26	 100
  26	 103
  26	 104
  26	 105
  26	 115
  26	 117
  26	 118
  26	 119
  27	  31
  27	  35
  27	  41
  27	  44
  27	  45
  27	  60
  27	  61
  27	  68
  27	  82
  27	  84
  27	  87
  27	  89
  27	  91
  27	  94
  27	  98
  27	  99
  27	 101
  27	 105
  27	 109
  27	 111
  28	  35
  28	  36
  28	  38
  28	  39
  28	  42
  28	  46
  28	  50
  28	  52
  28	  54
  28	  60
  28	  61
  28	  62
  28	  63
  28	  65
  28	  73
  28	  76
  28	  80
  28	  85
  28	  89
  28	  91
  28	  92
  28	 100
  28	 103
  28	 113
  28	 114
  28	 115
  28	 118
  28	 119
  29	  33
  29	  34
  29	  38
  29	  43
  29	  44
  29	  45
  29	  49
  29	  50
  29	  51
  29	  54
  29	  55
  29	  58
  29	  60
  29	  63
  29	  66
  29	  68
  29	  69
  29	  70
  29	  75
  29	  80
  29	  82
  29	  85
  29	  86
  29	  91
  29	  93
  29	  96
  29	 103
  29	 106
  29	 108
  30	  32
  30	  34
  30	  35
  30	  37
  30	  39
  30	  40
  30	  45
  30	  48
  30	  51
  30	  53
  30	  54
  30	  59
  30	  66
  30	  67
  30	  68
  30	  73
  30	  74
  30	  75
  30	  76
  30	  80
  30	  83
  30	  87
  30	  89
  30	  92
  30	  96
  30	  98
  30	  99
  30	 100
  30	 105
  30	 106
  30	 107
  30	 108
  30	 114
  30	 116
  30	 117
  31	  33
  31	  34
  31	  35
  31	  36
  31	  43
  31	  46
  31	  48
  31	  52
  31	  58
  31	  63
  31	  64
  31	  66
  31	  67
  31	  81
  31	  82
  31	  88
  31	  89
  31	  92
  31	  94
  31	  95
  31	  96
  31	 101
  31	 104
  31	 109
  32	  33
  32	  36
  32	  37
  32	  40
  32	  41
  32	  42
  32	  44
  32	  45
  32	  47
  32	  48
  32	  52
  32	  56
  32	  58
  32	  59
  32	  60
  32	  61
  32	  64
  32	  66
  32	  67
  32	  68
  32	  69
  32	  71
  32	  72
  32	  73
  32	  76
  32	  85
  32	  93
  32	  96
  32	  99
  32	 105
  32	 107
  32	 108
  32	 110
  32	 111
  32	 112
  32	 114
  32	 115
  33	  37
  33	  47
  33	  50
  33	  52
  33	  60
  33	  63
  33	  67
  33	  70
  33	  71
  33	  72
  33	  75
  33	  82
  33	  83
  33	  84
  33	  85
  33	  86
  33	  87
  33	  92
  33	  93
  33	  94
  33	  95
  33	 101
  33	 105
  33	 106
  33	 113
  33	 115
  33	 117
  33	 118
  34	  42
  34	  47
  34	  48
  34	  49
  34	  52
  34	  60
  34	  62
  34	  65
  34	  66
  34	  67
  34	  70
  34	  73
  34	  77
  34	  79
  34	  81
  34	  82
  34	  85
  34	  87
  34	  97
  34	 100
  34	 101
  34	 110
  34	 113
  34	 115
  34	 116
  35	  36
  35	  41
  35	  43
  35	  48
  35	  53
  35	  56
  35	  58
  35	  61
  35	  65
  35	  75
  35	  85
  35	  86
  35	  88
  35	  89
  35	  90
  35	  96
  35	  97
  35	 100
  35	 101
  35	 112
  35	 113
  35	 118
  36	  41
  36	  44
  36	  46
  36	  48
  36	  53
  36	  54
  36	  65
  36	  68
  36	  69
  36	  70
  36	  71
  36	  72
  36	  77
  36	  80
  36	  82
  36	  83
  36	  87
  36	  88
  36	  89
  36	 100
  36	 103
  36	 104
  36	 108
  36	 112
  36	 113
  36	 115
  36	 119
  37	  39
  37	  40
  37	  42
  37	  43
  37	  46
  37	  52
  37	  58
  37	  67
  37	  72
  37	  79
  37	  84
  37	  86
  37	  88
  37	  89
  37	  90
  37	  91
  37	  96
  37	  97
  37	  98
  37	 101
  37	 102
  37	 105
  37	 106
  37	 110
  37	 112
  37	 117
  37	 119
  38	  40
  38	  45
  38	  50
  38	  52
  38	  66
  38	  71
  38	  77
  38	  82
  38	  90
  38	  91
  38	  98
  38	 100
  38	 102
  38	 103
  38	 113
  38	 115
  38	 116
  38	 117
  39	  40
  39	  45
  39	  60
  39	  63
  39	  64
  39	  66
  39	  69
  39	  71
  39	  74
  39	  75
  39	  76
  39	  77
  39	  82
  39	  84
  39	  90
  39	  93
  39	 100
  39	 101
  39	 102
  39	 108
  39	 111
  39	 115
  39	 117
  40	  41
  40	  42
  40	  43
  40	  48
  40	  58
  40	  60
  40	  61
  40	  63
  40	  64
  40	  65
  40	  66
  40	  68
  40	  75
  40	  80
  40	  85
  40	  87
  40	  94
  40	  95
  40	  96
  40	 101
  40	 103
  40	 107
  40	 109
  40	 118
  41	  46
  41	  47
  41	  53
  41	  59
  41	  62
  41	  67
  41	  69
  41	  70
  41	  71
  41	  72
  41	  73
  41	  77
  41	  78
  41	  79
  41	  81
  41	  92
  41	  93
  41	  94
  41	 113
  41	 115
  41	 117
  42	  48
  42	  54
  42	  55
  42	  60
  42	  61
  42	  65
  42	  71
  42	  72
  42	  73
  42	  76
  42	  82
  42	  83
  42	  84
  42	  85
  42	  88
  42	  91
  42	  98
  42	  99
  42	 104
  42	 105
  42	 108
  42	 110
  42	 111
  42	 112
  42	 114
  43	  47
  43	  49
  43	  51
  43	  56
  43	  62
  43	  63
  43	  66
  43	  79
  43	  82
  43	  87
  43	  89
  43	  91
  43	  96
  43	 102
  43	 106
  43	 113
  43	 114
  44	  45
  44	  49
  44	  50
  44	  52
  44	  55
  44	  56
  44	  63
  44	  65
  44	  68
  44	  72
  44	  77
  44	  82
  44	  88
  44	  89
  44	  91
  44	 104
  44	 113
  44	 118
  45	  46
  45	  47
  45	  53
  45	  63
  45	  65
  45	  74
  45	  76
  45	  81
  45	  82
  45	  84
  45	  86
  45	  90
  45	  93
  45	  94
  45	  95
  45	  97
  45	  99
  45	 101
  45	 114
  45	 116
  45	 119
  46	  48
  46	  57
  46	  58
  46	  59
  46	  60
  46	  61
  46	  62
  46	  66
  46	  70
  46	  76
  46	  79
  46	  81
  46	  83
  46	  87
  46	  88
  46	  89
  46	  91
  46	  94
  46	  95
  46	  99
  46	 101
  46	 104
  46	 109
  46	 111
  46	 112
  46	 115
  46	 118
  46	 119
  47	  51
  47	  55
  47	  63
  47	  64
  47	  68
  47	  70
  47	  87
  47	  91
  47	  92
  47	  96
  47	 100
  47	 102
  47	 104
  47	 111
  47	 112
  47	 114
  48	  49
  48	  52
  48	  54
  48	  55
  48	  62
  48	  64
  48	  66
  48	  70
  48	  73
  48	  75
  48	  80
  48	  85
  48	  94
  48	  95
  48	  96
  48	  97
  48	  98
  48	  99
  48	 103
  48	 106
  48	 107
  48	 109
  48	 114
  48	 117
  48	 118
  49	  51
  49	  52
  49	  53
  49	  57
  49	  64
  49	  70
  49	  79
  49	  80
  49	  82
  49	  84
  49	  89
  49	  91
  49	  92
  49	  96
  49	 100
  49	 101
  49	 103
  49	 104
  49	 105
  49	 110
  49	 111
  49	 118
  50	  51
  50	  53
  50	  54
  50	  59
  50	  62
  50	  64
  50	  65
  50	  67
  50	  72
  50	  74
  50	  75
  50	  80
  50	  83
  50	  86
  50	  92
  50	  94
  50	  97
  50	  98
  50	 103
  50	 105
  50	 108
  50	 109
  50	 110
  50	 115
  50	 116
  50	 117
  50	 119
  51	  53
  51	  66
  51	  68
  51	  69
  51	  82
  51	  83
  51	  84
  51	  85
  51	  87
  51	  89
  51	  90
  51	  93
  51	  94
  51	  97
  51	 103
  51	 105
  51	 106
  51	 108
  51	 109
  51	 111
  52	  55
  52	  60
  52	  62
  52	  64
  52	  70
  52	  78
  52	  80
  52	  82
  52	  89
  52	  92
  52	  96
  52	  97
  52	  99
  52	 103
  52	 104
  52	 105
  52	 113
  52	 116
  52	 117
  53	  58
  53	  65
  53	  70
  53	  72
  53	  74
  53	  78
  53	  83
  53	  84
  53	  85
  53	  89
  53	  91
  53	  94
  53	  96
  53	  98
  53	  99
  53	 102
  53	 103
  53	 107
  53	 108
  53	 114
  53	 118
  54	  55
  54	  56
  54	  59
  54	  64
  54	  66
  54	  70
  54	  71
  54	  75
  54	  79
  54	  83
  54	  84
  54	  87
  54	  88
  54	  90
  54	  91
  54	  93
  54	 103
  54	 109
  54	 112
  54	 116
  54	 119
  55	  57
  55	  61
  55	  63
  55	  64
  55	  65
  55	  66
  55	  69
  55	  76
  55	  77
  55	  80
  55	  84
  55	  88
  55	  90
  55	  91
  55	  93
  55	  95
  55	 105
  55	 106
  55	 110
  55	 117
  55	 118
  56	  60
  56	  61
  56	  62
  56	  63
  56	  64
  56	  70
  56	  71
  56	  72
  56	  76
  56	  77
  56	  79
  56	  83
  56	  86
  56	  96
  56	  97
  56	  98
  56	 101
  56	 102
  56	 106
  56	 107
  56	 110
  56	 116
  57	  58
  57	  59
  57	  64
  57	  69
  57	  77
  57	  78
  57	  81
  57	  83
  57	  94
  57	  98
  57	 105
  57	 110
  57	 111
  57	 112
  57	 115
  58	  76
  58	  77
  58	  78
  58	  81
  58	  82
  58	  84
  58	  85
  58	  86
  58	  88
  58	  91
  58	  99
  58	 101
  58	 103
  58	 105
  58	 106
  58	 108
  58	 112
  58	 116
  58	 118
  59	  62
  59	  64
  59	  65
  59	  66
  59	  67
  59	  68
  59	  73
  59	  75
  59	  76
  59	  78
  59	  81
  59	  82
  59	  85
  59	  88
  59	  92
  59	  99
  59	 100
  59	 105
  59	 106
  59	 107
  59	 111
  60	  64
  60	  67
  60	  69
  60	  70
  60	  73
  60	  75
  60	  76
  60	  77
  60	  79
  60	  81
  60	  84
  60	  86
  60	  88
  60	  93
  60	  97
  60	 103
  60	 107
  60	 114
  60	 115
  60	 116
  60	 118
  61	  62
  61	  65
  61	  69
  61	  79
  61	  83
  61	  86
  61	  92
  61	  96
  61	 101
  61	 103
  61	 104
  61	 106
  61	 107
  61	 109
  61	 112
  61	 114
  61	 116
  62	  66
  62	  69
  62	  72
  62	  76
  62	  79
  62	  86
  62	  87
  62	  88
  62	  89
  62	  90
  62	  91
  62	  93
  62	 103
  62	 104
  62	 105
  62	 106
  62	 111
  62	 116
  62	 118
  63	  69
  63	  70
  63	  76
  63	  77
  63	  98
  63	 101
  63	 106
  63	 108
  63	 109
  63	 110
  63	 111
  63	 115
  63	 116
  63	 117
  63	 118
  64	  68
  64	  75
  64	  79
  64	  80
  64	  82
  64	  83
  64	  95
  64	  97
  64	 103
  64	 104
  64	 106
  64	 107
  64	 108
  64	 116
  64	 119
  65	  67
  65	  68
  65	  74
  65	  80
  65	  87
  65	  94
  65	  98
  65	 100
  65	 101
  65	 105
  65	 111
  65	 115
  65	 117
  66	  68
  66	  69
  66	  70
  66	  75
  66	  80
  66	  81
  66	  82
  66	  83
  66	  87
  66	  89
  66	  95
  66	 100
  66	 101
  66	 104
  66	 105
  66	 107
  66	 109
  66	 111
  66	 113
  67	  72
  67	  73
  67	  79
  67	  80
  67	  84
  67	  86
  67	  89
  67	  93
  67	  97
  67	 106
  67	 109
  67	 111
  67	 112
  67	 113
  67	 114
  67	 116
  67	 119
  68	  76
  68	  84
  68	  91
  68	  92
  68	  96
  68	 100
  68	 105
  68	 109
  68	 114
  68	 118
  69	  70
  69	  77
  69	  84
  69	  85
  69	  86
  69	  94
  69	  97
  69	  98
  69	 101
  69	 102
  69	 106
  69	 109
  69	 110
  69	 113
  70	  85
  70	  87
  70	  91
  70	  92
  70	  97
  70	  98
  70	 100
  70	 102
  70	 105
  70	 111
  70	 114
  70	 119
  71	  73
  71	  76
  71	  78
  71	  90
  71	  94
  71	  97
  71	  99
  71	 101
  71	 105
  71	 106
  71	 109
  71	 110
  71	 111
  71	 113
  71	 114
  71	 118
  72	  73
  72	  74
  72	  78
  72	  80
  72	  85
  72	  86
  72	  88
  72	  93
  72	  99
  72	 100
  72	 107
  72	 108
  72	 109
  72	 118
  72	 119
  73	  76
  73	  85
  73	  92
  73	  98
  73	 100
  73	 102
  73	 108
  73	 109
  74	  75
  74	  78
  74	  85
  74	  86
  74	  92
  74	 102
  74	 104
  74	 109
  74	 111
  74	 112
  74	 113
  74	 117
  74	 118
  75	  79
  75	  81
  75	  83
  75	  85
  75	  88
  75	  90
  75	  94
  75	  95
  75	  96
  75	  99
  75	 104
  75	 109
  75	 112
  76	  79
  76	  82
  76	  84
  76	  86
  76	  93
  76	 100
  76	 102
  76	 104
  76	 106
  76	 109
  76	 110
  76	 114
  77	  81
  77	  91
  77	  96
  77	  99
  77	 101
  77	 102
  77	 108
  77	 109
  77	 111
  77	 112
  77	 114
  78	  80
  78	  81
  78	  82
  78	  89
  78	  90
  78	  92
  78	 100
  78	 101
  78	 102
  78	 103
  78	 104
  78	 106
  78	 108
  78	 109
  78	 110
  78	 113
  78	 115
  78	 118
  79	  80
  79	  82
  79	  85
  79	  88
  79	  89
  79	  94
  79	  95
  79	  97
  79	  98
  79	 111
  79	 112
  79	 116
  79	 118
  80	 100
  80	 101
  80	 109
  80	 110
  80	 111
  80	 114
  80	 118
  80	 119
  81	  84
  81	  91
  81	  93
  81	  95
  81	 100
  81	 101
  81	 107
  81	 110
  81	 117
  81	 118
  81	 119
  82	  85
  82	  87
  82	 101
  82	 104
  82	 105
  82	 107
  82	 108
  82	 111
  82	 113
  83	  84
  83	  85
  83	  88
  83	  99
  83	 106
  83	 107
  83	 109
  83	 112
  83	 114
  83	 119
  84	  85
  84	  91
  84	  96
  84	  98
  84	 103
  84	 107
  84	 112
  84	 114
  85	  91
  85	  92
  85	  93
  85	  99
  85	 106
  85	 108
  85	 109
  85	 111
  85	 115
  85	 117
  86	  91
  86	  95
  86	 100
  86	 105
  86	 109
  86	 112
  86	 118
  87	  90
  87	  92
  87	  94
  87	 102
  87	 105
  87	 116
  87	 117
  87	 119
  88	  90
  88	  94
  88	  98
  88	 106
  88	 108
  88	 113
  88	 114
  89	  90
  89	  94
  89	  96
  89	 102
  89	 109
  89	 110
  89	 113
  90	  93
  90	  99
  90	 108
  90	 111
  90	 112
  90	 114
  90	 118
  90	 119
  91	  96
  91	  98
  91	  99
  91	 103
  91	 104
  91	 107
  91	 109
  91	 110
  91	 111
  91	 112
  91	 118
  91	 119
  92	  93
  92	  96
  92	 100
  92	 101
  92	 103
  92	 104
  92	 106
  92	 108
  92	 110
  93	  94
  93	  97
  93	  99
  93	 108
  93	 109
  93	 119
  94	  98
  94	 109
  94	 112
  94	 115
  94	 116
  94	 118
  95	  96
  95	  98
  95	 116
  95	 119
  96	  98
  96	 101
  96	 103
  96	 104
  96	 106
  96	 108
  96	 111
  96	 115
  97	 100
  97	 103
  97	 105
  97	 106
  97	 110
  97	 112
  97	 118
  97	 119
  98	  99
  98	 100
  98	 110
  99	 109
  99	 112
  99	 118
  99	 119
 100	 103
 100	 104
 100	 112
 101	 105
 101	 107
 101	 112
 101	 116
 102	 104
 102	 106
 102	 119
 103	 107
 103	 110
 103	 112
 103	 118
 103	 119
 104	 105
 104	 108
 104	 111
 104	 112
 104	 113
 104	 115
 104	 118
 104	 119
 105	 108
 105	 113
 105	 119
 106	 107
 106	 112
 106	 117
 106	 118
 107	 109
 107	 117
 108	 114
 108	 116
 108	 117
 108	 118
 109	 111
 109	 113
 110	 114
 111	 113
 111	 115
 112	 113
 113	 115
 113	 117
 113	 118
 114	 119
 115	 116
 115	 117
 116	 117
 116	 118
 118	 119
;
